p cnf 7230 16
3836 5117 -5122 0
-5117 -5123 0
-4568 5115 0
5122 5123 0
5120 5121 0
4578 -5121 0
-4578 -5120 0
5118 5119 0
4576 -5119 0
-4576 -5118 0
-3836 -5123 0
5116 5117 0
4574 -5117 0
-4574 -5116 0
-5114 -5115 0
5114 5115 0
